NAME 
ROWS
 N  OBJ
 L  ULC[0]  
 L  ULC[1]  
 L  ULC[2]  
 L  ULC[3]  
 L  ULC[4]  
 L  LLC[0]  
 L  LLC[1]  
 L  LLC[2]  
 L  LLC[3]  
 L  LLC[4]  
COLUMNS
    MARKER    'MARKER'                 'INTORG'
    X[0]      OBJ       -12
    X[0]      ULC[0]    30
    X[0]      ULC[2]    7
    X[0]      ULC[3]    15
    X[0]      ULC[4]    58
    X[0]      LLC[0]    11
    X[0]      LLC[1]    83
    X[0]      LLC[2]    63
    X[0]      LLC[3]    28
    X[0]      LLC[4]    92
    X[1]      OBJ       47
    X[1]      ULC[0]    48
    X[1]      ULC[1]    17
    X[1]      ULC[2]    9
    X[1]      ULC[3]    6
    X[1]      ULC[4]    40
    X[1]      LLC[0]    6
    X[1]      LLC[1]    99
    X[1]      LLC[2]    8
    X[1]      LLC[3]    100
    X[1]      LLC[4]    51
    X[2]      OBJ       -19
    X[2]      ULC[0]    19
    X[2]      ULC[1]    30
    X[2]      ULC[2]    45
    X[2]      ULC[3]    7
    X[2]      ULC[4]    24
    X[2]      LLC[0]    41
    X[2]      LLC[1]    36
    X[2]      LLC[2]    76
    X[2]      LLC[3]    53
    X[2]      LLC[4]    33
    X[3]      OBJ       23
    X[3]      ULC[0]    4
    X[3]      ULC[1]    97
    X[3]      ULC[2]    3
    X[3]      ULC[3]    44
    X[3]      ULC[4]    61
    X[3]      LLC[0]    55
    X[3]      LLC[1]    1
    X[3]      LLC[2]    50
    X[3]      LLC[3]    99
    X[3]      LLC[4]    65
    X[4]      OBJ       17
    X[4]      ULC[0]    65
    X[4]      ULC[1]    37
    X[4]      ULC[2]    20
    X[4]      ULC[3]    73
    X[4]      ULC[4]    58
    X[4]      LLC[0]    57
    X[4]      LLC[1]    41
    X[4]      LLC[2]    20
    X[4]      LLC[3]    21
    X[4]      LLC[4]    5
    X[5]      OBJ       -32
    X[5]      ULC[0]    18
    X[5]      ULC[1]    43
    X[5]      ULC[2]    7
    X[5]      ULC[3]    90
    X[5]      ULC[4]    57
    X[5]      LLC[0]    90
    X[5]      LLC[1]    74
    X[5]      LLC[2]    15
    X[5]      LLC[3]    66
    X[5]      LLC[4]    22
    X[6]      OBJ       46
    X[6]      ULC[0]    55
    X[6]      ULC[1]    51
    X[6]      ULC[2]    90
    X[6]      ULC[3]    68
    X[6]      ULC[4]    8
    X[6]      LLC[0]    55
    X[6]      LLC[1]    12
    X[6]      LLC[2]    30
    X[6]      LLC[3]    21
    X[6]      LLC[4]    100
    X[7]      OBJ       -2
    X[7]      ULC[0]    95
    X[7]      ULC[1]    26
    X[7]      ULC[2]    50
    X[7]      ULC[3]    84
    X[7]      ULC[4]    90
    X[7]      LLC[0]    28
    X[7]      LLC[1]    11
    X[7]      LLC[2]    84
    X[7]      LLC[3]    45
    X[7]      LLC[4]    24
    X[8]      OBJ       -16
    X[8]      ULC[0]    98
    X[8]      ULC[1]    84
    X[8]      ULC[2]    11
    X[8]      ULC[3]    76
    X[8]      ULC[4]    42
    X[8]      LLC[0]    63
    X[8]      LLC[1]    75
    X[8]      LLC[2]    68
    X[8]      LLC[3]    84
    X[8]      LLC[4]    59
    X[9]      OBJ       37
    X[9]      ULC[0]    91
    X[9]      ULC[1]    85
    X[9]      ULC[2]    18
    X[9]      ULC[3]    5
    X[9]      ULC[4]    100
    X[9]      LLC[0]    1
    X[9]      LLC[1]    83
    X[9]      LLC[2]    80
    X[9]      LLC[3]    69
    X[9]      LLC[4]    53
    Y[0]      OBJ       25
    Y[0]      ULC[0]    76
    Y[0]      ULC[1]    48
    Y[0]      ULC[2]    24
    Y[0]      ULC[3]    78
    Y[0]      ULC[4]    60
    Y[0]      LLC[0]    13
    Y[0]      LLC[1]    19
    Y[0]      LLC[2]    71
    Y[0]      LLC[3]    87
    Y[0]      LLC[4]    69
    Y[1]      OBJ       -11
    Y[1]      ULC[0]    8
    Y[1]      ULC[1]    13
    Y[1]      ULC[2]    22
    Y[1]      ULC[3]    64
    Y[1]      ULC[4]    14
    Y[1]      LLC[0]    27
    Y[1]      LLC[1]    20
    Y[1]      LLC[2]    4
    Y[1]      LLC[3]    44
    Y[1]      LLC[4]    33
    Y[2]      OBJ       32
    Y[2]      ULC[0]    91
    Y[2]      ULC[1]    83
    Y[2]      ULC[2]    41
    Y[2]      ULC[3]    26
    Y[2]      ULC[4]    20
    Y[2]      LLC[0]    82
    Y[2]      LLC[1]    61
    Y[2]      LLC[2]    20
    Y[2]      LLC[3]    11
    Y[2]      LLC[4]    76
    Y[3]      OBJ       -4
    Y[3]      ULC[0]    21
    Y[3]      ULC[1]    21
    Y[3]      ULC[2]    82
    Y[3]      ULC[3]    99
    Y[3]      ULC[4]    80
    Y[3]      LLC[0]    46
    Y[3]      LLC[1]    52
    Y[3]      LLC[2]    58
    Y[3]      LLC[3]    29
    Y[3]      LLC[4]    76
    Y[4]      OBJ       15
    Y[4]      ULC[0]    38
    Y[4]      ULC[1]    44
    Y[4]      ULC[2]    41
    Y[4]      ULC[3]    97
    Y[4]      ULC[4]    27
    Y[4]      LLC[0]    71
    Y[4]      LLC[1]    23
    Y[4]      LLC[2]    20
    Y[4]      LLC[3]    44
    Y[4]      LLC[4]    13
    Y[5]      OBJ       -11
    Y[5]      ULC[0]    30
    Y[5]      ULC[1]    86
    Y[5]      ULC[2]    87
    Y[5]      ULC[3]    16
    Y[5]      ULC[4]    81
    Y[5]      LLC[0]    35
    Y[5]      LLC[1]    19
    Y[5]      LLC[2]    55
    Y[5]      LLC[3]    51
    Y[5]      LLC[4]    71
    Y[6]      OBJ       38
    Y[6]      ULC[1]    15
    Y[6]      ULC[2]    80
    Y[6]      ULC[3]    86
    Y[6]      ULC[4]    35
    Y[6]      LLC[0]    71
    Y[6]      LLC[1]    53
    Y[6]      LLC[2]    27
    Y[6]      LLC[3]    54
    Y[6]      LLC[4]    5
    Y[7]      OBJ       41
    Y[7]      ULC[0]    40
    Y[7]      ULC[1]    75
    Y[7]      ULC[2]    31
    Y[7]      ULC[3]    100
    Y[7]      ULC[4]    69
    Y[7]      LLC[0]    67
    Y[7]      LLC[1]    45
    Y[7]      LLC[2]    84
    Y[7]      LLC[3]    79
    Y[7]      LLC[4]    24
    Y[8]      OBJ       8
    Y[8]      ULC[0]    91
    Y[8]      ULC[1]    92
    Y[8]      ULC[2]    81
    Y[8]      ULC[3]    56
    Y[8]      ULC[4]    3
    Y[8]      LLC[0]    3
    Y[8]      LLC[1]    5
    Y[8]      LLC[2]    96
    Y[8]      LLC[3]    28
    Y[8]      LLC[4]    56
    Y[9]      OBJ       2
    Y[9]      ULC[0]    75
    Y[9]      ULC[1]    51
    Y[9]      ULC[2]    15
    Y[9]      ULC[3]    77
    Y[9]      ULC[4]    9
    Y[9]      LLC[0]    2
    Y[9]      LLC[1]    42
    Y[9]      LLC[2]    26
    Y[9]      LLC[3]    93
    Y[9]      LLC[4]    62
    MARKER    'MARKER'                 'INTEND'
RHS
    RHS1      ULC[0]    744
    RHS1      ULC[1]    748
    RHS1      ULC[2]    573
    RHS1      ULC[3]    875
    RHS1      ULC[4]    702
    RHS1      LLC[0]    797
    RHS1      LLC[1]    701
    RHS1      LLC[2]    851
    RHS1      LLC[3]    818
    RHS1      LLC[4]    863
BOUNDS
 BV BND1      X[0]    
 BV BND1      X[1]    
 BV BND1      X[2]    
 BV BND1      X[3]    
 BV BND1      X[4]    
 BV BND1      X[5]    
 BV BND1      X[6]    
 BV BND1      X[7]    
 BV BND1      X[8]    
 BV BND1      X[9]    
 BV BND1      Y[0]    
 BV BND1      Y[1]    
 BV BND1      Y[2]    
 BV BND1      Y[3]    
 BV BND1      Y[4]    
 BV BND1      Y[5]    
 BV BND1      Y[6]    
 BV BND1      Y[7]    
 BV BND1      Y[8]    
 BV BND1      Y[9]    
ENDATA
